solution status: optimal solution found
objective value:                     110473.980908152
d11(0,0)                                            1 	(obj:0)
d11(1,1)                                            1 	(obj:0)
d11(2,3)                                            1 	(obj:0)
d11(2,4)                                            1 	(obj:0)
d11(2,5)                                            1 	(obj:0)
d11(2,6)                                            1 	(obj:0)
d11(3,7)                                            1 	(obj:0)
d11(3,9)                                            1 	(obj:0)
d11(3,13)                                           1 	(obj:0)
d12(3,8)                                            1 	(obj:0)
d12(3,10)                                           1 	(obj:0)
d12(3,12)                                           1 	(obj:0)
d12(3,14)                                           1 	(obj:0)
d21(2,3)                                            1 	(obj:0)
d21(3,7)                                            1 	(obj:0)
d21(3,8)                                            1 	(obj:0)
d21(3,11)                                           1 	(obj:0)
y2(3,8)                              1385.48851144895 	(obj:0)
y2(3,10)                             1385.48851144895 	(obj:0)
y2(3,12)                             1385.48851144895 	(obj:0)
y2(3,14)                             1385.48851144895 	(obj:0)
STE(1,1)                              4316.9381903922 	(obj:0)
STE(0,0)                                         6300 	(obj:0)
STE(1,2)                                         5796 	(obj:0)
STE(2,3)                             1995.75010111085 	(obj:0)
STE(2,4)                             3653.99999999967 	(obj:0)
STE(2,5)                             3474.81191071865 	(obj:0)
STE(2,6)                             5133.06180960747 	(obj:0)
STE(3,7)                             1491.75010111085 	(obj:0)
STE(3,8)                             2807.96418698736 	(obj:0)
STE(3,9)                                         3150 	(obj:0)
STE(3,10)                            4466.21408587618 	(obj:0)
STE(3,11)                            2970.81191071865 	(obj:0)
STE(3,12)                            4287.02599659515 	(obj:0)
STE(3,13)                            4629.06180960747 	(obj:0)
STE(3,14)                            5945.27589548398 	(obj:0)
AVE(2)                               3315.65537776224 	(obj:0)
WB(3)                                3315.65799770399 	(obj:0)
y1(1,1)                              1331.15562864702 	(obj:0)
y1(2,3)                              1635.46928035321 	(obj:0)
y1(2,4)                              143.044371353277 	(obj:0)
y1(2,5)                              1635.46928035321 	(obj:0)
y1(2,6)                              143.044371353277 	(obj:0)
AVE(3)                               3315.65799770399 	(obj:0)
WB(1)                                3248.33172520918 	(obj:0)
WG(2)                                3315.65537776224 	(obj:10)
BG(1)                                4031.73200882353 	(obj:10)
BG(2)                                1026.60076545536 	(obj:10)
BG(3)                                2673.40993877527 	(obj:10)
AVE(1)                               3248.33172520918 	(obj:0)
